36934.77 0
298 266 265 264 263 262 261 260 259 258 299 300 257 256 255 253 254 252 251 250 249 248 241 242 243 244 245 247 246 238 239 240 237 236 235 234 232 233 530 531 532 533 231 230 229 228 227 189 225 226 190 191 192 193 219 218 220 221 222 224 223 217 216 215 214 213 212 211 210 209 205 206 207 208 203 204 202 201 200 199 198 197 196 195 194 184 185 183 182 186 188 187 538 537 539 540 176 177 178 179 181 180 169 171 170 172 175 174 173 108 109 107 542 541 543 544 545 546 547 103 104 105 106 117 116 115 114 110 111 112 113 161 160 162 168 163 167 166 164 165 154 155 159 156 153 157 158 145 144 143 142 146 147 148 152 149 150 151 141 140 139 138 137 136 135 134 133 132 131 130 129 128 127 126 125 124 69 70 68 67 66 65 72 71 123 122 121 120 118 119 73 74 75 76 64 62 63 61 60 59 81 80 79 78 77 88 89 94 97 95 96 98 99 100 102 101 551 550 559 558 557 556 552 553 554 555 91 92 93 90 87 86 85 84 51 50 52 53 83 82 57 58 56 55 54 49 48 47 46 45 44 43 42 39 41 40 38 37 36 35 34 33 32 30 31 29 28 27 26 25 24 22 23 12 13 21 20 19 18 17 16 15 14 11 10 9 8 7 6 5 4 3 2 1 0 573 572 571 466 467 468 469 470 471 472 473 474 570 569 568 567 566 565 564 563 562 561 560 549 548 478 477 479 480 476 475 482 481 483 536 484 485 486 487 535 534 488 489 490 529 528 527 512 511 510 509 513 514 515 516 517 520 521 522 523 526 491 492 493 525 524 494 495 518 519 497 496 465 464 463 462 461 460 459 458 457 456 455 454 439 443 444 445 442 446 447 448 449 450 441 440 453 452 499 500 501 498 502 503 504 505 506 507 508 302 301 303 304 306 319 320 321 317 318 305 307 308 309 310 311 451 312 313 316 314 315 374 375 376 377 378 379 380 381 390 389 388 391 392 393 394 395 396 371 372 373 322 323 324 325 326 327 328 329 366 342 365 367 368 369 370 398 397 399 400 404 405 406 407 408 409 384 383 385 387 386 382 431 433 434 435 436 438 437 432 430 429 428 427 426 425 424 423 422 421 420 419 417 418 410 411 412 356 402 403 401 360 359 358 357 355 354 353 352 413 414 416 415 351 350 349 348 347 362 361 363 364 346 345 344 343 341 340 330 331 332 333 339 338 337 336 335 334 283 284 285 286 287 280 281 282 279 278 277 276 288 289 290 291 292 275 274 273 272 271 267 268 269 270 293 294 295 296 297 
